NAME : myTSP_dim20
COMMENT : generated for test
TYPE : TSP
DIMENSION : 20
EDGE_WEIGHT_TYPE : EUC_2D
BEST_KNOWN : 3372
NODE_COORD_SECTION
1 696.4691855978616 286.13933495037946
2 722.4433825702216 322.9589138531782
3 719.4689697855631 423.10646012446097
4 944.1600182038796 501.83667588433656
5 980.7641983846155 684.8297385848633
6 724.4553248606352 611.0235106775829
7 634.4009585513211 849.4317940777896
8 426.3513069628082 893.3891631171348
9 398.04425533043144 737.9954057320357
10 343.1780161508694 729.0497073840417
11 293.7140463888294 630.9761238544878
12 226.8514535642031 551.3147690828912
13 92.10493994507519 433.7011726795282
14 182.49173045349997 175.45175614749255
15 438.5722446796244 59.67789660956835
16 361.7886556223141 228.26323087895562
17 425.830290295828 312.2612229724653
18 480.93190148436094 392.11751819415053
19 430.86276332964377 493.6850976503062
20 531.5513738418384 531.8275870968661
EOF